NAME : TSP_INST.22068.tour
COMMENT : Length = 22068
COMMENT : Found by LKH [Keld Helsgaun] Sat Oct 18 14:36:40 2025
TYPE : TOUR
DIMENSION : 100
TOUR_SECTION
1
74
21
7
76
12
32
58
63
88
35
40
84
17
99
45
54
25
97
65
8
5
42
90
48
68
38
33
22
39
43
86
19
94
18
24
29
100
78
53
34
6
70
37
77
85
96
11
2
4
82
92
27
67
87
41
75
13
55
91
93
30
66
31
9
57
80
10
60
50
49
20
15
56
62
64
23
28
36
95
59
98
51
69
47
3
46
26
79
81
89
72
44
52
14
61
71
16
73
83
-1
EOF
